unsat
(:cnf-encoding-aux-vars 75
 :elim-unconstrained    1
 :max-memory            19.13
 :memory                18.73
 :nlsat-arith-var       10
 :nlsat-atoms           146
 :nlsat-bool-var        93
 :nlsat-clauses         374
 :nlsat-conflicts       11
 :nlsat-decisions       10
 :nlsat-propagations    60
 :num-allocs            216102
 :rlimit-count          40129
 :solve-eqs-elim-vars   74
 :solve-eqs-steps       247
 :time                  0.01
 :total-time            0.03)
